NAME : random67.662.tour
COMMENT : Length = 662
COMMENT : Found by LKH [Keld Helsgaun] Sun Jun 16 17:59:04 2024
TYPE : TOUR
DIMENSION : 67
TOUR_SECTION
1
14
60
12
27
10
16
23
7
13
8
43
37
3
38
39
31
46
9
45
63
58
34
59
40
64
5
62
20
66
55
42
51
47
29
22
53
2
30
52
48
17
21
44
15
6
65
57
50
67
33
18
28
26
4
24
49
11
56
25
35
61
54
19
36
41
32
-1
EOF
